(set-info :smt-lib-version 2.6)
(set-logic QF_NIA)
(set-info :source |
Generated by: Cristina Borralleras, Daniel Larraz, Albert Oliveras, Enric Rodriguez-Carbonell, Albert Rubio
Generated on: 2017-04-27
Generator: VeryMax
Application: Termination proving
Target solver: barcelogic
|)
(set-info :license "https://creativecommons.org/licenses/by/4.0/")
(set-info :category "industrial")
(set-info :status sat)
(declare-fun Nl2main_a1 () Int)
(declare-fun Nl2main_b1 () Int)
(declare-fun Nl2main_q1 () Int)
(declare-fun Nl2main_a2 () Int)
(declare-fun Nl2main_b2 () Int)
(declare-fun Nl2main_q2 () Int)
(declare-fun Nl2main_a3 () Int)
(declare-fun Nl2main_b3 () Int)
(declare-fun Nl2main_q3 () Int)
(declare-fun lam0n0 () Int)
(declare-fun lam0n1 () Int)
(declare-fun lam0n2 () Int)
(declare-fun lam0n3 () Int)
(declare-fun lam0n4 () Int)
(declare-fun lam0n6 () Int)
(declare-fun lam0n7 () Int)
(declare-fun lam0n8 () Int)
(declare-fun lam0n5 () Int)
(declare-fun Nl2CT1 () Int)
(declare-fun Nl2CT2 () Int)
(declare-fun Nl2CT3 () Int)
(declare-fun lam1n0 () Int)
(declare-fun lam1n1 () Int)
(declare-fun lam1n2 () Int)
(declare-fun lam1n3 () Int)
(declare-fun lam1n4 () Int)
(declare-fun lam1n6 () Int)
(declare-fun lam1n7 () Int)
(declare-fun lam1n8 () Int)
(declare-fun lam1n5 () Int)
(declare-fun lam2n0 () Int)
(declare-fun lam2n1 () Int)
(declare-fun lam2n2 () Int)
(declare-fun lam2n3 () Int)
(declare-fun lam2n4 () Int)
(declare-fun lam2n6 () Int)
(declare-fun lam2n7 () Int)
(declare-fun lam2n8 () Int)
(declare-fun lam2n5 () Int)
(declare-fun lam3n0 () Int)
(declare-fun lam3n1 () Int)
(declare-fun lam3n2 () Int)
(declare-fun lam3n3 () Int)
(declare-fun lam3n4 () Int)
(declare-fun lam3n6 () Int)
(declare-fun lam3n7 () Int)
(declare-fun lam3n8 () Int)
(declare-fun lam3n5 () Int)
(declare-fun lam4n0 () Int)
(declare-fun lam4n1 () Int)
(declare-fun lam4n2 () Int)
(declare-fun lam4n3 () Int)
(declare-fun lam4n5 () Int)
(declare-fun lam4n6 () Int)
(declare-fun lam4n7 () Int)
(declare-fun lam4n4 () Int)
(declare-fun lam5n0 () Int)
(declare-fun lam5n1 () Int)
(declare-fun lam5n2 () Int)
(declare-fun lam5n3 () Int)
(declare-fun lam5n5 () Int)
(declare-fun lam5n6 () Int)
(declare-fun lam5n7 () Int)
(declare-fun lam5n4 () Int)
(declare-fun lam6n0 () Int)
(declare-fun lam6n1 () Int)
(declare-fun lam6n2 () Int)
(declare-fun lam6n3 () Int)
(declare-fun lam6n5 () Int)
(declare-fun lam6n6 () Int)
(declare-fun lam6n7 () Int)
(declare-fun lam6n4 () Int)
(declare-fun lam7n0 () Int)
(declare-fun lam7n1 () Int)
(declare-fun lam7n2 () Int)
(declare-fun lam7n3 () Int)
(declare-fun lam7n5 () Int)
(declare-fun lam7n6 () Int)
(declare-fun lam7n7 () Int)
(declare-fun lam7n4 () Int)
(declare-fun lam8n0 () Int)
(declare-fun lam8n1 () Int)
(declare-fun lam8n2 () Int)
(declare-fun lam8n4 () Int)
(declare-fun lam8n5 () Int)
(declare-fun lam8n6 () Int)
(declare-fun lam8n3 () Int)
(declare-fun lam9n0 () Int)
(declare-fun lam9n1 () Int)
(declare-fun lam9n2 () Int)
(declare-fun lam9n4 () Int)
(declare-fun lam9n5 () Int)
(declare-fun lam9n6 () Int)
(declare-fun lam9n3 () Int)
(declare-fun lam10n0 () Int)
(declare-fun lam10n1 () Int)
(declare-fun lam10n2 () Int)
(declare-fun lam10n4 () Int)
(declare-fun lam10n5 () Int)
(declare-fun lam10n6 () Int)
(declare-fun lam10n3 () Int)
(declare-fun lam11n0 () Int)
(declare-fun lam11n1 () Int)
(declare-fun lam11n2 () Int)
(declare-fun lam11n4 () Int)
(declare-fun lam11n5 () Int)
(declare-fun lam11n6 () Int)
(declare-fun lam11n3 () Int)
(declare-fun lam12n0 () Int)
(declare-fun lam12n1 () Int)
(declare-fun lam12n2 () Int)
(declare-fun lam12n3 () Int)
(declare-fun lam12n4 () Int)
(declare-fun lam12n5 () Int)
(declare-fun lam12n6 () Int)
(declare-fun lam12n7 () Int)
(declare-fun lam12n8 () Int)
(declare-fun lam13n0 () Int)
(declare-fun lam13n1 () Int)
(declare-fun lam13n2 () Int)
(declare-fun lam13n3 () Int)
(declare-fun lam13n4 () Int)
(declare-fun lam13n5 () Int)
(declare-fun lam13n6 () Int)
(declare-fun lam13n7 () Int)
(declare-fun lam13n8 () Int)
(declare-fun lam14n0 () Int)
(declare-fun lam14n1 () Int)
(declare-fun lam14n2 () Int)
(declare-fun lam14n3 () Int)
(declare-fun lam14n4 () Int)
(declare-fun lam14n5 () Int)
(declare-fun lam14n6 () Int)
(declare-fun lam14n7 () Int)
(declare-fun lam14n8 () Int)
(declare-fun lam15n0 () Int)
(declare-fun lam15n1 () Int)
(declare-fun lam15n2 () Int)
(declare-fun lam15n3 () Int)
(declare-fun lam15n4 () Int)
(declare-fun lam15n5 () Int)
(declare-fun lam15n6 () Int)
(declare-fun lam15n7 () Int)
(declare-fun lam16n0 () Int)
(declare-fun lam16n1 () Int)
(declare-fun lam16n2 () Int)
(declare-fun lam16n3 () Int)
(declare-fun lam16n4 () Int)
(declare-fun lam16n5 () Int)
(declare-fun lam16n6 () Int)
(declare-fun lam16n7 () Int)
(declare-fun lam17n0 () Int)
(declare-fun lam17n1 () Int)
(declare-fun lam17n2 () Int)
(declare-fun lam17n3 () Int)
(declare-fun lam17n4 () Int)
(declare-fun lam17n5 () Int)
(declare-fun lam17n6 () Int)
(declare-fun lam17n7 () Int)
(declare-fun lam18n0 () Int)
(declare-fun lam18n1 () Int)
(declare-fun lam18n2 () Int)
(declare-fun lam18n3 () Int)
(declare-fun lam18n4 () Int)
(declare-fun lam18n5 () Int)
(declare-fun lam18n6 () Int)
(declare-fun lam18n7 () Int)
(declare-fun lam19n0 () Int)
(declare-fun lam19n1 () Int)
(declare-fun lam19n2 () Int)
(declare-fun lam19n3 () Int)
(declare-fun lam19n4 () Int)
(declare-fun lam19n5 () Int)
(declare-fun lam19n6 () Int)
(declare-fun lam19n7 () Int)
(declare-fun lam20n0 () Int)
(declare-fun lam20n1 () Int)
(declare-fun lam20n2 () Int)
(declare-fun lam20n3 () Int)
(declare-fun lam20n4 () Int)
(declare-fun lam20n5 () Int)
(declare-fun lam20n6 () Int)
(declare-fun lam20n7 () Int)
(declare-fun lam21n0 () Int)
(declare-fun lam21n1 () Int)
(declare-fun lam21n2 () Int)
(declare-fun lam21n3 () Int)
(declare-fun lam21n4 () Int)
(declare-fun lam21n5 () Int)
(declare-fun lam21n6 () Int)
(declare-fun lam22n0 () Int)
(declare-fun lam22n1 () Int)
(declare-fun lam22n2 () Int)
(declare-fun lam22n3 () Int)
(declare-fun lam22n4 () Int)
(declare-fun lam22n5 () Int)
(declare-fun lam22n6 () Int)
(declare-fun lam23n0 () Int)
(declare-fun lam23n1 () Int)
(declare-fun lam23n2 () Int)
(declare-fun lam23n3 () Int)
(declare-fun lam23n4 () Int)
(declare-fun lam23n5 () Int)
(declare-fun lam23n6 () Int)
(declare-fun lam24n0 () Int)
(declare-fun lam24n1 () Int)
(declare-fun lam24n2 () Int)
(declare-fun lam24n3 () Int)
(declare-fun lam24n4 () Int)
(declare-fun lam24n5 () Int)
(declare-fun lam24n6 () Int)
(declare-fun lam25n0 () Int)
(declare-fun lam25n1 () Int)
(declare-fun lam25n2 () Int)
(declare-fun lam25n3 () Int)
(declare-fun lam25n4 () Int)
(declare-fun lam25n5 () Int)
(declare-fun lam25n6 () Int)
(declare-fun lam26n0 () Int)
(declare-fun lam26n1 () Int)
(declare-fun lam26n2 () Int)
(declare-fun lam26n3 () Int)
(declare-fun lam26n4 () Int)
(declare-fun lam26n5 () Int)
(declare-fun lam26n6 () Int)
(declare-fun main_a () Int)
(declare-fun main_b () Int)
(declare-fun main_q () Int)
(declare-fun undef5 () Int)
(declare-fun undef6 () Int)
(declare-fun undef4 () Int)
(declare-fun lam30n0 () Int)
(declare-fun lam30n1 () Int)
(declare-fun lam30n2 () Int)
(declare-fun lam30n3 () Int)
(declare-fun lam30n5 () Int)
(declare-fun lam30n6 () Int)
(declare-fun lam30n7 () Int)
(declare-fun lam30n4 () Int)
(declare-fun RFN1_CT () Int)
(declare-fun RFN1_main_a () Int)
(declare-fun RFN1_main_b () Int)
(declare-fun RFN1_main_q () Int)
(declare-fun lam28n0 () Int)
(declare-fun lam28n1 () Int)
(declare-fun lam28n2 () Int)
(declare-fun lam28n3 () Int)
(declare-fun lam28n5 () Int)
(declare-fun lam28n6 () Int)
(declare-fun lam28n7 () Int)
(declare-fun lam28n4 () Int)
(declare-fun lam29n0 () Int)
(declare-fun lam29n1 () Int)
(declare-fun lam29n2 () Int)
(declare-fun lam29n3 () Int)
(declare-fun lam29n5 () Int)
(declare-fun lam29n6 () Int)
(declare-fun lam29n7 () Int)
(declare-fun lam29n4 () Int)
(declare-fun lam27n0 () Int)
(declare-fun lam27n1 () Int)
(declare-fun lam27n2 () Int)
(declare-fun lam27n3 () Int)
(declare-fun lam27n5 () Int)
(declare-fun lam27n6 () Int)
(declare-fun lam27n7 () Int)
(declare-fun lam27n4 () Int)
(assert ( and ( <= ( - 4 ) Nl2main_a1 ) ( <= Nl2main_a1 4 ) ( <= ( - 4 ) Nl2main_b1 ) ( <= Nl2main_b1 4 ) ( <= ( - 4 ) Nl2main_q1 ) ( <= Nl2main_q1 4 ) ( <= ( - 4 ) Nl2main_a2 ) ( <= Nl2main_a2 4 ) ( <= ( - 4 ) Nl2main_b2 ) ( <= Nl2main_b2 4 ) ( <= ( - 4 ) Nl2main_q2 ) ( <= Nl2main_q2 4 ) ( <= ( - 4 ) Nl2main_a3 ) ( <= Nl2main_a3 4 ) ( <= ( - 4 ) Nl2main_b3 ) ( <= Nl2main_b3 4 ) ( <= ( - 4 ) Nl2main_q3 ) ( <= Nl2main_q3 4 ) ))
(assert ( or ( and ( >= lam0n0 0 ) ( >= lam0n1 0 ) ( >= lam0n2 0 ) ( >= lam0n3 0 ) ( >= lam0n4 0 ) ( >= lam0n6 0 ) ( >= lam0n7 0 ) ( >= lam0n8 0 ) ( > ( + ( * 1 lam0n2 ) ( * ( - 1 ) lam0n3 ) ( * 2 lam0n4 ) ( * 6 lam0n5 ) ( * Nl2CT1 lam0n6 ) ( * Nl2CT2 lam0n7 ) ( * Nl2CT3 lam0n8 ) ( - 1 ) ) 0 ) ( = ( + ( * ( - 1 ) lam0n0 ) ( * ( - 1 ) lam0n3 ) ( * ( - 1 ) lam0n4 ) ( * Nl2main_a1 lam0n6 ) ( * Nl2main_a2 lam0n7 ) ( * Nl2main_a3 lam0n8 ) ) 0 ) ( = ( + ( * 1 lam0n0 ) ( * ( - 1 ) lam0n1 ) ( * ( - 1 ) lam0n4 ) ( * 1 lam0n5 ) ( * Nl2main_b1 lam0n6 ) ( * Nl2main_b2 lam0n7 ) ( * Nl2main_b3 lam0n8 ) ) 0 ) ( = ( + ( * ( - 1 ) lam0n2 ) ( * ( - 1 ) lam0n3 ) ( * ( - 1 ) lam0n4 ) ( * ( - 4 ) lam0n5 ) ( * Nl2main_q1 lam0n6 ) ( * Nl2main_q2 lam0n7 ) ( * Nl2main_q3 lam0n8 ) ) 0 ) ) ( and ( >= lam1n0 0 ) ( >= lam1n1 0 ) ( >= lam1n2 0 ) ( >= lam1n3 0 ) ( >= lam1n4 0 ) ( >= lam1n6 0 ) ( >= lam1n7 0 ) ( >= lam1n8 0 ) ( > ( + ( * 1 lam1n2 ) ( * ( - 1 ) lam1n3 ) ( * 2 lam1n4 ) ( * 6 lam1n5 ) ( * Nl2CT1 lam1n6 ) ( * Nl2CT2 lam1n7 ) ( * Nl2CT3 lam1n8 ) ( - 1 ( + ( + ( + Nl2CT1 ( * Nl2main_a1 0 ) ) ( * Nl2main_b1 0 ) ) ( * Nl2main_q1 ( - 1 ) ) ) ) ) 0 ) ( = ( + ( * ( - 1 ) lam1n0 ) ( * ( - 1 ) lam1n3 ) ( * ( - 1 ) lam1n4 ) ( * Nl2main_a1 lam1n6 ) ( * Nl2main_a2 lam1n7 ) ( * Nl2main_a3 lam1n8 ) ( - ( + ( + ( + 0 ( * Nl2main_a1 3 ) ) ( * Nl2main_b1 4 ) ) ( * Nl2main_q1 1 ) ) ) ) 0 ) ( = ( + ( * 1 lam1n0 ) ( * ( - 1 ) lam1n1 ) ( * ( - 1 ) lam1n4 ) ( * 1 lam1n5 ) ( * Nl2main_b1 lam1n6 ) ( * Nl2main_b2 lam1n7 ) ( * Nl2main_b3 lam1n8 ) ( - ( + ( + 0 ( * Nl2main_a1 ( - 4 ) ) ) ( * Nl2main_b1 3 ) ) ) ) 0 ) ( = ( + ( * ( - 1 ) lam1n2 ) ( * ( - 1 ) lam1n3 ) ( * ( - 1 ) lam1n4 ) ( * ( - 4 ) lam1n5 ) ( * Nl2main_q1 lam1n6 ) ( * Nl2main_q2 lam1n7 ) ( * Nl2main_q3 lam1n8 ) ( - ( + 0 ( * Nl2main_q1 1 ) ) ) ) 0 ) ) ))
(assert ( or ( and ( >= lam0n0 0 ) ( >= lam0n1 0 ) ( >= lam0n2 0 ) ( >= lam0n3 0 ) ( >= lam0n4 0 ) ( >= lam0n6 0 ) ( >= lam0n7 0 ) ( >= lam0n8 0 ) ( > ( + ( * 1 lam0n2 ) ( * ( - 1 ) lam0n3 ) ( * 2 lam0n4 ) ( * 6 lam0n5 ) ( * Nl2CT1 lam0n6 ) ( * Nl2CT2 lam0n7 ) ( * Nl2CT3 lam0n8 ) ( - 1 ) ) 0 ) ( = ( + ( * ( - 1 ) lam0n0 ) ( * ( - 1 ) lam0n3 ) ( * ( - 1 ) lam0n4 ) ( * Nl2main_a1 lam0n6 ) ( * Nl2main_a2 lam0n7 ) ( * Nl2main_a3 lam0n8 ) ) 0 ) ( = ( + ( * 1 lam0n0 ) ( * ( - 1 ) lam0n1 ) ( * ( - 1 ) lam0n4 ) ( * 1 lam0n5 ) ( * Nl2main_b1 lam0n6 ) ( * Nl2main_b2 lam0n7 ) ( * Nl2main_b3 lam0n8 ) ) 0 ) ( = ( + ( * ( - 1 ) lam0n2 ) ( * ( - 1 ) lam0n3 ) ( * ( - 1 ) lam0n4 ) ( * ( - 4 ) lam0n5 ) ( * Nl2main_q1 lam0n6 ) ( * Nl2main_q2 lam0n7 ) ( * Nl2main_q3 lam0n8 ) ) 0 ) ) ( and ( >= lam2n0 0 ) ( >= lam2n1 0 ) ( >= lam2n2 0 ) ( >= lam2n3 0 ) ( >= lam2n4 0 ) ( >= lam2n6 0 ) ( >= lam2n7 0 ) ( >= lam2n8 0 ) ( > ( + ( * 1 lam2n2 ) ( * ( - 1 ) lam2n3 ) ( * 2 lam2n4 ) ( * 6 lam2n5 ) ( * Nl2CT1 lam2n6 ) ( * Nl2CT2 lam2n7 ) ( * Nl2CT3 lam2n8 ) ( - 1 ( + ( + ( + Nl2CT2 ( * Nl2main_a2 0 ) ) ( * Nl2main_b2 0 ) ) ( * Nl2main_q2 ( - 1 ) ) ) ) ) 0 ) ( = ( + ( * ( - 1 ) lam2n0 ) ( * ( - 1 ) lam2n3 ) ( * ( - 1 ) lam2n4 ) ( * Nl2main_a1 lam2n6 ) ( * Nl2main_a2 lam2n7 ) ( * Nl2main_a3 lam2n8 ) ( - ( + ( + ( + 0 ( * Nl2main_a2 3 ) ) ( * Nl2main_b2 4 ) ) ( * Nl2main_q2 1 ) ) ) ) 0 ) ( = ( + ( * 1 lam2n0 ) ( * ( - 1 ) lam2n1 ) ( * ( - 1 ) lam2n4 ) ( * 1 lam2n5 ) ( * Nl2main_b1 lam2n6 ) ( * Nl2main_b2 lam2n7 ) ( * Nl2main_b3 lam2n8 ) ( - ( + ( + 0 ( * Nl2main_a2 ( - 4 ) ) ) ( * Nl2main_b2 3 ) ) ) ) 0 ) ( = ( + ( * ( - 1 ) lam2n2 ) ( * ( - 1 ) lam2n3 ) ( * ( - 1 ) lam2n4 ) ( * ( - 4 ) lam2n5 ) ( * Nl2main_q1 lam2n6 ) ( * Nl2main_q2 lam2n7 ) ( * Nl2main_q3 lam2n8 ) ( - ( + 0 ( * Nl2main_q2 1 ) ) ) ) 0 ) ) ))
(assert ( or ( and ( >= lam0n0 0 ) ( >= lam0n1 0 ) ( >= lam0n2 0 ) ( >= lam0n3 0 ) ( >= lam0n4 0 ) ( >= lam0n6 0 ) ( >= lam0n7 0 ) ( >= lam0n8 0 ) ( > ( + ( * 1 lam0n2 ) ( * ( - 1 ) lam0n3 ) ( * 2 lam0n4 ) ( * 6 lam0n5 ) ( * Nl2CT1 lam0n6 ) ( * Nl2CT2 lam0n7 ) ( * Nl2CT3 lam0n8 ) ( - 1 ) ) 0 ) ( = ( + ( * ( - 1 ) lam0n0 ) ( * ( - 1 ) lam0n3 ) ( * ( - 1 ) lam0n4 ) ( * Nl2main_a1 lam0n6 ) ( * Nl2main_a2 lam0n7 ) ( * Nl2main_a3 lam0n8 ) ) 0 ) ( = ( + ( * 1 lam0n0 ) ( * ( - 1 ) lam0n1 ) ( * ( - 1 ) lam0n4 ) ( * 1 lam0n5 ) ( * Nl2main_b1 lam0n6 ) ( * Nl2main_b2 lam0n7 ) ( * Nl2main_b3 lam0n8 ) ) 0 ) ( = ( + ( * ( - 1 ) lam0n2 ) ( * ( - 1 ) lam0n3 ) ( * ( - 1 ) lam0n4 ) ( * ( - 4 ) lam0n5 ) ( * Nl2main_q1 lam0n6 ) ( * Nl2main_q2 lam0n7 ) ( * Nl2main_q3 lam0n8 ) ) 0 ) ) ( and ( >= lam3n0 0 ) ( >= lam3n1 0 ) ( >= lam3n2 0 ) ( >= lam3n3 0 ) ( >= lam3n4 0 ) ( >= lam3n6 0 ) ( >= lam3n7 0 ) ( >= lam3n8 0 ) ( > ( + ( * 1 lam3n2 ) ( * ( - 1 ) lam3n3 ) ( * 2 lam3n4 ) ( * 6 lam3n5 ) ( * Nl2CT1 lam3n6 ) ( * Nl2CT2 lam3n7 ) ( * Nl2CT3 lam3n8 ) ( - 1 ( + ( + ( + Nl2CT3 ( * Nl2main_a3 0 ) ) ( * Nl2main_b3 0 ) ) ( * Nl2main_q3 ( - 1 ) ) ) ) ) 0 ) ( = ( + ( * ( - 1 ) lam3n0 ) ( * ( - 1 ) lam3n3 ) ( * ( - 1 ) lam3n4 ) ( * Nl2main_a1 lam3n6 ) ( * Nl2main_a2 lam3n7 ) ( * Nl2main_a3 lam3n8 ) ( - ( + ( + ( + 0 ( * Nl2main_a3 3 ) ) ( * Nl2main_b3 4 ) ) ( * Nl2main_q3 1 ) ) ) ) 0 ) ( = ( + ( * 1 lam3n0 ) ( * ( - 1 ) lam3n1 ) ( * ( - 1 ) lam3n4 ) ( * 1 lam3n5 ) ( * Nl2main_b1 lam3n6 ) ( * Nl2main_b2 lam3n7 ) ( * Nl2main_b3 lam3n8 ) ( - ( + ( + 0 ( * Nl2main_a3 ( - 4 ) ) ) ( * Nl2main_b3 3 ) ) ) ) 0 ) ( = ( + ( * ( - 1 ) lam3n2 ) ( * ( - 1 ) lam3n3 ) ( * ( - 1 ) lam3n4 ) ( * ( - 4 ) lam3n5 ) ( * Nl2main_q1 lam3n6 ) ( * Nl2main_q2 lam3n7 ) ( * Nl2main_q3 lam3n8 ) ( - ( + 0 ( * Nl2main_q3 1 ) ) ) ) 0 ) ) ))
(assert ( or ( and ( >= lam4n0 0 ) ( >= lam4n1 0 ) ( >= lam4n2 0 ) ( >= lam4n3 0 ) ( >= lam4n5 0 ) ( >= lam4n6 0 ) ( >= lam4n7 0 ) ( > ( + ( * 1 lam4n1 ) ( * 1 lam4n2 ) ( * ( - 1 ) lam4n3 ) ( * 6 lam4n4 ) ( * Nl2CT1 lam4n5 ) ( * Nl2CT2 lam4n6 ) ( * Nl2CT3 lam4n7 ) ( - 1 ) ) 0 ) ( = ( + ( * ( - 1 ) lam4n0 ) ( * ( - 1 ) lam4n3 ) ( * Nl2main_a1 lam4n5 ) ( * Nl2main_a2 lam4n6 ) ( * Nl2main_a3 lam4n7 ) ) 0 ) ( = ( + ( * 1 lam4n0 ) ( * 1 lam4n1 ) ( * 1 lam4n4 ) ( * Nl2main_b1 lam4n5 ) ( * Nl2main_b2 lam4n6 ) ( * Nl2main_b3 lam4n7 ) ) 0 ) ( = ( + ( * ( - 1 ) lam4n2 ) ( * ( - 1 ) lam4n3 ) ( * ( - 4 ) lam4n4 ) ( * Nl2main_q1 lam4n5 ) ( * Nl2main_q2 lam4n6 ) ( * Nl2main_q3 lam4n7 ) ) 0 ) ) ( and ( >= lam5n0 0 ) ( >= lam5n1 0 ) ( >= lam5n2 0 ) ( >= lam5n3 0 ) ( >= lam5n5 0 ) ( >= lam5n6 0 ) ( >= lam5n7 0 ) ( > ( + ( * 1 lam5n1 ) ( * 1 lam5n2 ) ( * ( - 1 ) lam5n3 ) ( * 6 lam5n4 ) ( * Nl2CT1 lam5n5 ) ( * Nl2CT2 lam5n6 ) ( * Nl2CT3 lam5n7 ) ( - 1 ( + ( + ( + Nl2CT1 ( * Nl2main_a1 0 ) ) ( * Nl2main_b1 0 ) ) ( * Nl2main_q1 ( - 1 ) ) ) ) ) 0 ) ( = ( + ( * ( - 1 ) lam5n0 ) ( * ( - 1 ) lam5n3 ) ( * Nl2main_a1 lam5n5 ) ( * Nl2main_a2 lam5n6 ) ( * Nl2main_a3 lam5n7 ) ( - ( + ( + ( + 0 ( * Nl2main_a1 3 ) ) ( * Nl2main_b1 4 ) ) ( * Nl2main_q1 1 ) ) ) ) 0 ) ( = ( + ( * 1 lam5n0 ) ( * 1 lam5n1 ) ( * 1 lam5n4 ) ( * Nl2main_b1 lam5n5 ) ( * Nl2main_b2 lam5n6 ) ( * Nl2main_b3 lam5n7 ) ( - ( + ( + 0 ( * Nl2main_a1 ( - 4 ) ) ) ( * Nl2main_b1 3 ) ) ) ) 0 ) ( = ( + ( * ( - 1 ) lam5n2 ) ( * ( - 1 ) lam5n3 ) ( * ( - 4 ) lam5n4 ) ( * Nl2main_q1 lam5n5 ) ( * Nl2main_q2 lam5n6 ) ( * Nl2main_q3 lam5n7 ) ( - ( + 0 ( * Nl2main_q1 1 ) ) ) ) 0 ) ) ))
(assert ( or ( and ( >= lam4n0 0 ) ( >= lam4n1 0 ) ( >= lam4n2 0 ) ( >= lam4n3 0 ) ( >= lam4n5 0 ) ( >= lam4n6 0 ) ( >= lam4n7 0 ) ( > ( + ( * 1 lam4n1 ) ( * 1 lam4n2 ) ( * ( - 1 ) lam4n3 ) ( * 6 lam4n4 ) ( * Nl2CT1 lam4n5 ) ( * Nl2CT2 lam4n6 ) ( * Nl2CT3 lam4n7 ) ( - 1 ) ) 0 ) ( = ( + ( * ( - 1 ) lam4n0 ) ( * ( - 1 ) lam4n3 ) ( * Nl2main_a1 lam4n5 ) ( * Nl2main_a2 lam4n6 ) ( * Nl2main_a3 lam4n7 ) ) 0 ) ( = ( + ( * 1 lam4n0 ) ( * 1 lam4n1 ) ( * 1 lam4n4 ) ( * Nl2main_b1 lam4n5 ) ( * Nl2main_b2 lam4n6 ) ( * Nl2main_b3 lam4n7 ) ) 0 ) ( = ( + ( * ( - 1 ) lam4n2 ) ( * ( - 1 ) lam4n3 ) ( * ( - 4 ) lam4n4 ) ( * Nl2main_q1 lam4n5 ) ( * Nl2main_q2 lam4n6 ) ( * Nl2main_q3 lam4n7 ) ) 0 ) ) ( and ( >= lam6n0 0 ) ( >= lam6n1 0 ) ( >= lam6n2 0 ) ( >= lam6n3 0 ) ( >= lam6n5 0 ) ( >= lam6n6 0 ) ( >= lam6n7 0 ) ( > ( + ( * 1 lam6n1 ) ( * 1 lam6n2 ) ( * ( - 1 ) lam6n3 ) ( * 6 lam6n4 ) ( * Nl2CT1 lam6n5 ) ( * Nl2CT2 lam6n6 ) ( * Nl2CT3 lam6n7 ) ( - 1 ( + ( + ( + Nl2CT2 ( * Nl2main_a2 0 ) ) ( * Nl2main_b2 0 ) ) ( * Nl2main_q2 ( - 1 ) ) ) ) ) 0 ) ( = ( + ( * ( - 1 ) lam6n0 ) ( * ( - 1 ) lam6n3 ) ( * Nl2main_a1 lam6n5 ) ( * Nl2main_a2 lam6n6 ) ( * Nl2main_a3 lam6n7 ) ( - ( + ( + ( + 0 ( * Nl2main_a2 3 ) ) ( * Nl2main_b2 4 ) ) ( * Nl2main_q2 1 ) ) ) ) 0 ) ( = ( + ( * 1 lam6n0 ) ( * 1 lam6n1 ) ( * 1 lam6n4 ) ( * Nl2main_b1 lam6n5 ) ( * Nl2main_b2 lam6n6 ) ( * Nl2main_b3 lam6n7 ) ( - ( + ( + 0 ( * Nl2main_a2 ( - 4 ) ) ) ( * Nl2main_b2 3 ) ) ) ) 0 ) ( = ( + ( * ( - 1 ) lam6n2 ) ( * ( - 1 ) lam6n3 ) ( * ( - 4 ) lam6n4 ) ( * Nl2main_q1 lam6n5 ) ( * Nl2main_q2 lam6n6 ) ( * Nl2main_q3 lam6n7 ) ( - ( + 0 ( * Nl2main_q2 1 ) ) ) ) 0 ) ) ))
(assert ( or ( and ( >= lam4n0 0 ) ( >= lam4n1 0 ) ( >= lam4n2 0 ) ( >= lam4n3 0 ) ( >= lam4n5 0 ) ( >= lam4n6 0 ) ( >= lam4n7 0 ) ( > ( + ( * 1 lam4n1 ) ( * 1 lam4n2 ) ( * ( - 1 ) lam4n3 ) ( * 6 lam4n4 ) ( * Nl2CT1 lam4n5 ) ( * Nl2CT2 lam4n6 ) ( * Nl2CT3 lam4n7 ) ( - 1 ) ) 0 ) ( = ( + ( * ( - 1 ) lam4n0 ) ( * ( - 1 ) lam4n3 ) ( * Nl2main_a1 lam4n5 ) ( * Nl2main_a2 lam4n6 ) ( * Nl2main_a3 lam4n7 ) ) 0 ) ( = ( + ( * 1 lam4n0 ) ( * 1 lam4n1 ) ( * 1 lam4n4 ) ( * Nl2main_b1 lam4n5 ) ( * Nl2main_b2 lam4n6 ) ( * Nl2main_b3 lam4n7 ) ) 0 ) ( = ( + ( * ( - 1 ) lam4n2 ) ( * ( - 1 ) lam4n3 ) ( * ( - 4 ) lam4n4 ) ( * Nl2main_q1 lam4n5 ) ( * Nl2main_q2 lam4n6 ) ( * Nl2main_q3 lam4n7 ) ) 0 ) ) ( and ( >= lam7n0 0 ) ( >= lam7n1 0 ) ( >= lam7n2 0 ) ( >= lam7n3 0 ) ( >= lam7n5 0 ) ( >= lam7n6 0 ) ( >= lam7n7 0 ) ( > ( + ( * 1 lam7n1 ) ( * 1 lam7n2 ) ( * ( - 1 ) lam7n3 ) ( * 6 lam7n4 ) ( * Nl2CT1 lam7n5 ) ( * Nl2CT2 lam7n6 ) ( * Nl2CT3 lam7n7 ) ( - 1 ( + ( + ( + Nl2CT3 ( * Nl2main_a3 0 ) ) ( * Nl2main_b3 0 ) ) ( * Nl2main_q3 ( - 1 ) ) ) ) ) 0 ) ( = ( + ( * ( - 1 ) lam7n0 ) ( * ( - 1 ) lam7n3 ) ( * Nl2main_a1 lam7n5 ) ( * Nl2main_a2 lam7n6 ) ( * Nl2main_a3 lam7n7 ) ( - ( + ( + ( + 0 ( * Nl2main_a3 3 ) ) ( * Nl2main_b3 4 ) ) ( * Nl2main_q3 1 ) ) ) ) 0 ) ( = ( + ( * 1 lam7n0 ) ( * 1 lam7n1 ) ( * 1 lam7n4 ) ( * Nl2main_b1 lam7n5 ) ( * Nl2main_b2 lam7n6 ) ( * Nl2main_b3 lam7n7 ) ( - ( + ( + 0 ( * Nl2main_a3 ( - 4 ) ) ) ( * Nl2main_b3 3 ) ) ) ) 0 ) ( = ( + ( * ( - 1 ) lam7n2 ) ( * ( - 1 ) lam7n3 ) ( * ( - 4 ) lam7n4 ) ( * Nl2main_q1 lam7n5 ) ( * Nl2main_q2 lam7n6 ) ( * Nl2main_q3 lam7n7 ) ( - ( + 0 ( * Nl2main_q3 1 ) ) ) ) 0 ) ) ))
(assert ( or ( and ( >= lam8n0 0 ) ( >= lam8n1 0 ) ( >= lam8n2 0 ) ( >= lam8n4 0 ) ( >= lam8n5 0 ) ( >= lam8n6 0 ) ( > ( + ( * 1 lam8n0 ) ( * 1 lam8n1 ) ( * ( - 1 ) lam8n2 ) ( * 6 lam8n3 ) ( * Nl2CT1 lam8n4 ) ( * Nl2CT2 lam8n5 ) ( * Nl2CT3 lam8n6 ) ( - 1 ) ) 0 ) ( = ( + ( * 1 lam8n0 ) ( * ( - 1 ) lam8n2 ) ( * Nl2main_a1 lam8n4 ) ( * Nl2main_a2 lam8n5 ) ( * Nl2main_a3 lam8n6 ) ) 0 ) ( = ( + ( * ( - 1 ) lam8n0 ) ( * 1 lam8n3 ) ( * Nl2main_b1 lam8n4 ) ( * Nl2main_b2 lam8n5 ) ( * Nl2main_b3 lam8n6 ) ) 0 ) ( = ( + ( * ( - 1 ) lam8n1 ) ( * ( - 1 ) lam8n2 ) ( * ( - 4 ) lam8n3 ) ( * Nl2main_q1 lam8n4 ) ( * Nl2main_q2 lam8n5 ) ( * Nl2main_q3 lam8n6 ) ) 0 ) ) ( and ( >= lam9n0 0 ) ( >= lam9n1 0 ) ( >= lam9n2 0 ) ( >= lam9n4 0 ) ( >= lam9n5 0 ) ( >= lam9n6 0 ) ( > ( + ( * 1 lam9n0 ) ( * 1 lam9n1 ) ( * ( - 1 ) lam9n2 ) ( * 6 lam9n3 ) ( * Nl2CT1 lam9n4 ) ( * Nl2CT2 lam9n5 ) ( * Nl2CT3 lam9n6 ) ( - 1 ( + ( + ( + Nl2CT1 ( * Nl2main_a1 0 ) ) ( * Nl2main_b1 0 ) ) ( * Nl2main_q1 ( - 1 ) ) ) ) ) 0 ) ( = ( + ( * 1 lam9n0 ) ( * ( - 1 ) lam9n2 ) ( * Nl2main_a1 lam9n4 ) ( * Nl2main_a2 lam9n5 ) ( * Nl2main_a3 lam9n6 ) ( - ( + ( + ( + 0 ( * Nl2main_a1 3 ) ) ( * Nl2main_b1 4 ) ) ( * Nl2main_q1 1 ) ) ) ) 0 ) ( = ( + ( * ( - 1 ) lam9n0 ) ( * 1 lam9n3 ) ( * Nl2main_b1 lam9n4 ) ( * Nl2main_b2 lam9n5 ) ( * Nl2main_b3 lam9n6 ) ( - ( + ( + 0 ( * Nl2main_a1 ( - 4 ) ) ) ( * Nl2main_b1 3 ) ) ) ) 0 ) ( = ( + ( * ( - 1 ) lam9n1 ) ( * ( - 1 ) lam9n2 ) ( * ( - 4 ) lam9n3 ) ( * Nl2main_q1 lam9n4 ) ( * Nl2main_q2 lam9n5 ) ( * Nl2main_q3 lam9n6 ) ( - ( + 0 ( * Nl2main_q1 1 ) ) ) ) 0 ) ) ))
(assert ( or ( and ( >= lam8n0 0 ) ( >= lam8n1 0 ) ( >= lam8n2 0 ) ( >= lam8n4 0 ) ( >= lam8n5 0 ) ( >= lam8n6 0 ) ( > ( + ( * 1 lam8n0 ) ( * 1 lam8n1 ) ( * ( - 1 ) lam8n2 ) ( * 6 lam8n3 ) ( * Nl2CT1 lam8n4 ) ( * Nl2CT2 lam8n5 ) ( * Nl2CT3 lam8n6 ) ( - 1 ) ) 0 ) ( = ( + ( * 1 lam8n0 ) ( * ( - 1 ) lam8n2 ) ( * Nl2main_a1 lam8n4 ) ( * Nl2main_a2 lam8n5 ) ( * Nl2main_a3 lam8n6 ) ) 0 ) ( = ( + ( * ( - 1 ) lam8n0 ) ( * 1 lam8n3 ) ( * Nl2main_b1 lam8n4 ) ( * Nl2main_b2 lam8n5 ) ( * Nl2main_b3 lam8n6 ) ) 0 ) ( = ( + ( * ( - 1 ) lam8n1 ) ( * ( - 1 ) lam8n2 ) ( * ( - 4 ) lam8n3 ) ( * Nl2main_q1 lam8n4 ) ( * Nl2main_q2 lam8n5 ) ( * Nl2main_q3 lam8n6 ) ) 0 ) ) ( and ( >= lam10n0 0 ) ( >= lam10n1 0 ) ( >= lam10n2 0 ) ( >= lam10n4 0 ) ( >= lam10n5 0 ) ( >= lam10n6 0 ) ( > ( + ( * 1 lam10n0 ) ( * 1 lam10n1 ) ( * ( - 1 ) lam10n2 ) ( * 6 lam10n3 ) ( * Nl2CT1 lam10n4 ) ( * Nl2CT2 lam10n5 ) ( * Nl2CT3 lam10n6 ) ( - 1 ( + ( + ( + Nl2CT2 ( * Nl2main_a2 0 ) ) ( * Nl2main_b2 0 ) ) ( * Nl2main_q2 ( - 1 ) ) ) ) ) 0 ) ( = ( + ( * 1 lam10n0 ) ( * ( - 1 ) lam10n2 ) ( * Nl2main_a1 lam10n4 ) ( * Nl2main_a2 lam10n5 ) ( * Nl2main_a3 lam10n6 ) ( - ( + ( + ( + 0 ( * Nl2main_a2 3 ) ) ( * Nl2main_b2 4 ) ) ( * Nl2main_q2 1 ) ) ) ) 0 ) ( = ( + ( * ( - 1 ) lam10n0 ) ( * 1 lam10n3 ) ( * Nl2main_b1 lam10n4 ) ( * Nl2main_b2 lam10n5 ) ( * Nl2main_b3 lam10n6 ) ( - ( + ( + 0 ( * Nl2main_a2 ( - 4 ) ) ) ( * Nl2main_b2 3 ) ) ) ) 0 ) ( = ( + ( * ( - 1 ) lam10n1 ) ( * ( - 1 ) lam10n2 ) ( * ( - 4 ) lam10n3 ) ( * Nl2main_q1 lam10n4 ) ( * Nl2main_q2 lam10n5 ) ( * Nl2main_q3 lam10n6 ) ( - ( + 0 ( * Nl2main_q2 1 ) ) ) ) 0 ) ) ))
(assert ( or ( and ( >= lam8n0 0 ) ( >= lam8n1 0 ) ( >= lam8n2 0 ) ( >= lam8n4 0 ) ( >= lam8n5 0 ) ( >= lam8n6 0 ) ( > ( + ( * 1 lam8n0 ) ( * 1 lam8n1 ) ( * ( - 1 ) lam8n2 ) ( * 6 lam8n3 ) ( * Nl2CT1 lam8n4 ) ( * Nl2CT2 lam8n5 ) ( * Nl2CT3 lam8n6 ) ( - 1 ) ) 0 ) ( = ( + ( * 1 lam8n0 ) ( * ( - 1 ) lam8n2 ) ( * Nl2main_a1 lam8n4 ) ( * Nl2main_a2 lam8n5 ) ( * Nl2main_a3 lam8n6 ) ) 0 ) ( = ( + ( * ( - 1 ) lam8n0 ) ( * 1 lam8n3 ) ( * Nl2main_b1 lam8n4 ) ( * Nl2main_b2 lam8n5 ) ( * Nl2main_b3 lam8n6 ) ) 0 ) ( = ( + ( * ( - 1 ) lam8n1 ) ( * ( - 1 ) lam8n2 ) ( * ( - 4 ) lam8n3 ) ( * Nl2main_q1 lam8n4 ) ( * Nl2main_q2 lam8n5 ) ( * Nl2main_q3 lam8n6 ) ) 0 ) ) ( and ( >= lam11n0 0 ) ( >= lam11n1 0 ) ( >= lam11n2 0 ) ( >= lam11n4 0 ) ( >= lam11n5 0 ) ( >= lam11n6 0 ) ( > ( + ( * 1 lam11n0 ) ( * 1 lam11n1 ) ( * ( - 1 ) lam11n2 ) ( * 6 lam11n3 ) ( * Nl2CT1 lam11n4 ) ( * Nl2CT2 lam11n5 ) ( * Nl2CT3 lam11n6 ) ( - 1 ( + ( + ( + Nl2CT3 ( * Nl2main_a3 0 ) ) ( * Nl2main_b3 0 ) ) ( * Nl2main_q3 ( - 1 ) ) ) ) ) 0 ) ( = ( + ( * 1 lam11n0 ) ( * ( - 1 ) lam11n2 ) ( * Nl2main_a1 lam11n4 ) ( * Nl2main_a2 lam11n5 ) ( * Nl2main_a3 lam11n6 ) ( - ( + ( + ( + 0 ( * Nl2main_a3 3 ) ) ( * Nl2main_b3 4 ) ) ( * Nl2main_q3 1 ) ) ) ) 0 ) ( = ( + ( * ( - 1 ) lam11n0 ) ( * 1 lam11n3 ) ( * Nl2main_b1 lam11n4 ) ( * Nl2main_b2 lam11n5 ) ( * Nl2main_b3 lam11n6 ) ( - ( + ( + 0 ( * Nl2main_a3 ( - 4 ) ) ) ( * Nl2main_b3 3 ) ) ) ) 0 ) ( = ( + ( * ( - 1 ) lam11n1 ) ( * ( - 1 ) lam11n2 ) ( * ( - 4 ) lam11n3 ) ( * Nl2main_q1 lam11n4 ) ( * Nl2main_q2 lam11n5 ) ( * Nl2main_q3 lam11n6 ) ( - ( + 0 ( * Nl2main_q3 1 ) ) ) ) 0 ) ) ))
(assert ( or ( and ( <= ( + ( * ( - 1 ) main_a ) main_b ) 0 ) ( <= ( * ( - 1 ) main_b ) 0 ) ( not ( <= main_q 0 ) ) ( not ( <= ( + 2 main_a main_q ) 0 ) ) ( not ( <= ( + ( - 1 ) main_a main_b main_q ) 0 ) ) ( not ( <= ( + ( - 5 ) ( * ( - 1 ) main_b ) ( * 4 main_q ) ) 0 ) ) ( = ( + main_a ( * ( - 1 ) undef5 ) ) 0 ) ( = ( + main_b ( * ( - 1 ) undef6 ) ) 0 ) ( = ( + main_q ( * ( - 1 ) undef4 ) ) 0 ) ( <= ( + Nl2CT1 ( * ( + 0 Nl2main_a1 ) main_a ) ( * ( + 0 Nl2main_b1 ) main_b ) ( * ( + 0 Nl2main_q1 ) main_q ) ) 0 ) ( <= ( + Nl2CT2 ( * ( + 0 Nl2main_a2 ) main_a ) ( * ( + 0 Nl2main_b2 ) main_b ) ( * ( + 0 Nl2main_q2 ) main_q ) ) 0 ) ( <= ( + Nl2CT3 ( * ( + 0 Nl2main_a3 ) main_a ) ( * ( + 0 Nl2main_b3 ) main_b ) ( * ( + 0 Nl2main_q3 ) main_q ) ) 0 ) ( <= ( + ( - 6 ) ( * ( - 1 ) main_b ) ( * 4 main_q ) ) 0 ) ) ( and ( <= ( + ( * ( - 1 ) main_a ) main_b ) 0 ) ( not ( <= ( * ( - 1 ) main_b ) 0 ) ) ( not ( <= main_q 0 ) ) ( <= ( + 2 main_a main_q ) 0 ) ( not ( <= ( + ( - 6 ) ( * ( - 1 ) main_b ) ( * 4 main_q ) ) 0 ) ) ( = ( + main_a ( * ( - 1 ) undef5 ) ) 0 ) ( = ( + main_b ( * ( - 1 ) undef6 ) ) 0 ) ( = ( + main_q ( * ( - 1 ) undef4 ) ) 0 ) ( <= ( + Nl2CT1 ( * ( + 0 Nl2main_a1 ) main_a ) ( * ( + 0 Nl2main_b1 ) main_b ) ( * ( + 0 Nl2main_q1 ) main_q ) ) 0 ) ( <= ( + Nl2CT2 ( * ( + 0 Nl2main_a2 ) main_a ) ( * ( + 0 Nl2main_b2 ) main_b ) ( * ( + 0 Nl2main_q2 ) main_q ) ) 0 ) ( <= ( + Nl2CT3 ( * ( + 0 Nl2main_a3 ) main_a ) ( * ( + 0 Nl2main_b3 ) main_b ) ( * ( + 0 Nl2main_q3 ) main_q ) ) 0 ) ( <= ( + ( - 6 ) ( * ( - 1 ) main_b ) ( * 4 main_q ) ) 0 ) ) ( and ( <= ( + ( * ( - 1 ) main_a ) main_b ) 0 ) ( not ( <= ( * ( - 1 ) main_b ) 0 ) ) ( not ( <= main_q 0 ) ) ( not ( <= ( + 2 main_a main_q ) 0 ) ) ( not ( <= ( + ( - 5 ) ( * ( - 1 ) main_b ) ( * 4 main_q ) ) 0 ) ) ( = ( + main_a ( * ( - 1 ) undef5 ) ) 0 ) ( = ( + main_b ( * ( - 1 ) undef6 ) ) 0 ) ( = ( + main_q ( * ( - 1 ) undef4 ) ) 0 ) ( <= ( + Nl2CT1 ( * ( + 0 Nl2main_a1 ) main_a ) ( * ( + 0 Nl2main_b1 ) main_b ) ( * ( + 0 Nl2main_q1 ) main_q ) ) 0 ) ( <= ( + Nl2CT2 ( * ( + 0 Nl2main_a2 ) main_a ) ( * ( + 0 Nl2main_b2 ) main_b ) ( * ( + 0 Nl2main_q2 ) main_q ) ) 0 ) ( <= ( + Nl2CT3 ( * ( + 0 Nl2main_a3 ) main_a ) ( * ( + 0 Nl2main_b3 ) main_b ) ( * ( + 0 Nl2main_q3 ) main_q ) ) 0 ) ( <= ( + ( - 6 ) ( * ( - 1 ) main_b ) ( * 4 main_q ) ) 0 ) ) ( and ( not ( <= ( + ( * ( - 1 ) main_a ) main_b ) 0 ) ) ( not ( <= main_q 0 ) ) ( <= ( + 2 main_a main_q ) 0 ) ( not ( <= ( + ( - 6 ) ( * ( - 1 ) main_b ) ( * 4 main_q ) ) 0 ) ) ( = ( + main_a ( * ( - 1 ) undef5 ) ) 0 ) ( = ( + main_b ( * ( - 1 ) undef6 ) ) 0 ) ( = ( + main_q ( * ( - 1 ) undef4 ) ) 0 ) ( <= ( + Nl2CT1 ( * ( + 0 Nl2main_a1 ) main_a ) ( * ( + 0 Nl2main_b1 ) main_b ) ( * ( + 0 Nl2main_q1 ) main_q ) ) 0 ) ( <= ( + Nl2CT2 ( * ( + 0 Nl2main_a2 ) main_a ) ( * ( + 0 Nl2main_b2 ) main_b ) ( * ( + 0 Nl2main_q2 ) main_q ) ) 0 ) ( <= ( + Nl2CT3 ( * ( + 0 Nl2main_a3 ) main_a ) ( * ( + 0 Nl2main_b3 ) main_b ) ( * ( + 0 Nl2main_q3 ) main_q ) ) 0 ) ( <= ( + ( - 6 ) ( * ( - 1 ) main_b ) ( * 4 main_q ) ) 0 ) ) ( and ( not ( <= ( + ( * ( - 1 ) main_a ) main_b ) 0 ) ) ( not ( <= main_q 0 ) ) ( not ( <= ( + 2 main_a main_q ) 0 ) ) ( not ( <= ( + ( - 5 ) ( * ( - 1 ) main_b ) ( * 4 main_q ) ) 0 ) ) ( = ( + main_a ( * ( - 1 ) undef5 ) ) 0 ) ( = ( + main_b ( * ( - 1 ) undef6 ) ) 0 ) ( = ( + main_q ( * ( - 1 ) undef4 ) ) 0 ) ( <= ( + Nl2CT1 ( * ( + 0 Nl2main_a1 ) main_a ) ( * ( + 0 Nl2main_b1 ) main_b ) ( * ( + 0 Nl2main_q1 ) main_q ) ) 0 ) ( <= ( + Nl2CT2 ( * ( + 0 Nl2main_a2 ) main_a ) ( * ( + 0 Nl2main_b2 ) main_b ) ( * ( + 0 Nl2main_q2 ) main_q ) ) 0 ) ( <= ( + Nl2CT3 ( * ( + 0 Nl2main_a3 ) main_a ) ( * ( + 0 Nl2main_b3 ) main_b ) ( * ( + 0 Nl2main_q3 ) main_q ) ) 0 ) ( <= ( + ( - 6 ) ( * ( - 1 ) main_b ) ( * 4 main_q ) ) 0 ) ) ))
(assert ( or ( and ( and ( >= lam30n0 0 ) ( >= lam30n1 0 ) ( >= lam30n2 0 ) ( >= lam30n3 0 ) ( >= lam30n5 0 ) ( >= lam30n6 0 ) ( >= lam30n7 0 ) ( > ( + ( * 1 lam30n1 ) ( * 1 lam30n2 ) ( * ( - 1 ) lam30n3 ) ( * 6 lam30n4 ) ( * Nl2CT1 lam30n5 ) ( * Nl2CT2 lam30n6 ) ( * Nl2CT3 lam30n7 ) ( - 1 ( - ( + ( + ( + RFN1_CT ( * RFN1_main_a 0 ) ) ( * RFN1_main_b 0 ) ) ( * RFN1_main_q ( - 1 ) ) ) RFN1_CT ) ) ) 0 ) ( = ( + ( * ( - 1 ) lam30n0 ) ( * ( - 1 ) lam30n3 ) ( * Nl2main_a1 lam30n5 ) ( * Nl2main_a2 lam30n6 ) ( * Nl2main_a3 lam30n7 ) ( - ( - ( + ( + ( + 0 ( * RFN1_main_a 3 ) ) ( * RFN1_main_b 4 ) ) ( * RFN1_main_q 1 ) ) RFN1_main_a ) ) ) 0 ) ( = ( + ( * 1 lam30n0 ) ( * 1 lam30n1 ) ( * 1 lam30n4 ) ( * Nl2main_b1 lam30n5 ) ( * Nl2main_b2 lam30n6 ) ( * Nl2main_b3 lam30n7 ) ( - ( - ( + ( + 0 ( * RFN1_main_a ( - 4 ) ) ) ( * RFN1_main_b 3 ) ) RFN1_main_b ) ) ) 0 ) ( = ( + ( * ( - 1 ) lam30n2 ) ( * ( - 1 ) lam30n3 ) ( * ( - 4 ) lam30n4 ) ( * Nl2main_q1 lam30n5 ) ( * Nl2main_q2 lam30n6 ) ( * Nl2main_q3 lam30n7 ) ( - ( - ( + 0 ( * RFN1_main_q 1 ) ) RFN1_main_q ) ) ) 0 ) ) ( and ( and ( >= lam28n0 0 ) ( >= lam28n1 0 ) ( >= lam28n2 0 ) ( >= lam28n3 0 ) ( >= lam28n5 0 ) ( >= lam28n6 0 ) ( >= lam28n7 0 ) ( > ( + ( * 1 lam28n1 ) ( * 1 lam28n2 ) ( * ( - 1 ) lam28n3 ) ( * 6 lam28n4 ) ( * Nl2CT1 lam28n5 ) ( * Nl2CT2 lam28n6 ) ( * Nl2CT3 lam28n7 ) ( - 1 ( - RFN1_CT ) ) ) 0 ) ( = ( + ( * ( - 1 ) lam28n0 ) ( * ( - 1 ) lam28n3 ) ( * Nl2main_a1 lam28n5 ) ( * Nl2main_a2 lam28n6 ) ( * Nl2main_a3 lam28n7 ) ( - ( - RFN1_main_a ) ) ) 0 ) ( = ( + ( * 1 lam28n0 ) ( * 1 lam28n1 ) ( * 1 lam28n4 ) ( * Nl2main_b1 lam28n5 ) ( * Nl2main_b2 lam28n6 ) ( * Nl2main_b3 lam28n7 ) ( - ( - RFN1_main_b ) ) ) 0 ) ( = ( + ( * ( - 1 ) lam28n2 ) ( * ( - 1 ) lam28n3 ) ( * ( - 4 ) lam28n4 ) ( * Nl2main_q1 lam28n5 ) ( * Nl2main_q2 lam28n6 ) ( * Nl2main_q3 lam28n7 ) ( - ( - RFN1_main_q ) ) ) 0 ) ) ( and ( >= lam29n0 0 ) ( >= lam29n1 0 ) ( >= lam29n2 0 ) ( >= lam29n3 0 ) ( >= lam29n5 0 ) ( >= lam29n6 0 ) ( >= lam29n7 0 ) ( > ( + ( * 1 lam29n1 ) ( * 1 lam29n2 ) ( * ( - 1 ) lam29n3 ) ( * 6 lam29n4 ) ( * Nl2CT1 lam29n5 ) ( * Nl2CT2 lam29n6 ) ( * Nl2CT3 lam29n7 ) ( - 1 ( + ( - ( + ( + ( + RFN1_CT ( * RFN1_main_a 0 ) ) ( * RFN1_main_b 0 ) ) ( * RFN1_main_q ( - 1 ) ) ) RFN1_CT ) 1 ) ) ) 0 ) ( = ( + ( * ( - 1 ) lam29n0 ) ( * ( - 1 ) lam29n3 ) ( * Nl2main_a1 lam29n5 ) ( * Nl2main_a2 lam29n6 ) ( * Nl2main_a3 lam29n7 ) ( - ( - ( + ( + ( + 0 ( * RFN1_main_a 3 ) ) ( * RFN1_main_b 4 ) ) ( * RFN1_main_q 1 ) ) RFN1_main_a ) ) ) 0 ) ( = ( + ( * 1 lam29n0 ) ( * 1 lam29n1 ) ( * 1 lam29n4 ) ( * Nl2main_b1 lam29n5 ) ( * Nl2main_b2 lam29n6 ) ( * Nl2main_b3 lam29n7 ) ( - ( - ( + ( + 0 ( * RFN1_main_a ( - 4 ) ) ) ( * RFN1_main_b 3 ) ) RFN1_main_b ) ) ) 0 ) ( = ( + ( * ( - 1 ) lam29n2 ) ( * ( - 1 ) lam29n3 ) ( * ( - 4 ) lam29n4 ) ( * Nl2main_q1 lam29n5 ) ( * Nl2main_q2 lam29n6 ) ( * Nl2main_q3 lam29n7 ) ( - ( - ( + 0 ( * RFN1_main_q 1 ) ) RFN1_main_q ) ) ) 0 ) ) ) ) ( and ( >= lam27n0 0 ) ( >= lam27n1 0 ) ( >= lam27n2 0 ) ( >= lam27n3 0 ) ( >= lam27n5 0 ) ( >= lam27n6 0 ) ( >= lam27n7 0 ) ( > ( + ( * 1 lam27n1 ) ( * 1 lam27n2 ) ( * ( - 1 ) lam27n3 ) ( * 6 lam27n4 ) ( * Nl2CT1 lam27n5 ) ( * Nl2CT2 lam27n6 ) ( * Nl2CT3 lam27n7 ) ( - 1 ) ) 0 ) ( = ( + ( * ( - 1 ) lam27n0 ) ( * ( - 1 ) lam27n3 ) ( * Nl2main_a1 lam27n5 ) ( * Nl2main_a2 lam27n6 ) ( * Nl2main_a3 lam27n7 ) ) 0 ) ( = ( + ( * 1 lam27n0 ) ( * 1 lam27n1 ) ( * 1 lam27n4 ) ( * Nl2main_b1 lam27n5 ) ( * Nl2main_b2 lam27n6 ) ( * Nl2main_b3 lam27n7 ) ) 0 ) ( = ( + ( * ( - 1 ) lam27n2 ) ( * ( - 1 ) lam27n3 ) ( * ( - 4 ) lam27n4 ) ( * Nl2main_q1 lam27n5 ) ( * Nl2main_q2 lam27n6 ) ( * Nl2main_q3 lam27n7 ) ) 0 ) ) ))
(check-sat)
(exit)
